c Standarized MaxSat Instance
c{
c "sha1sum": "3f18b78545a77c713ed4f18c6abc2c074e0c507c",
c "nvars": 43,
c "ncls": 348,
c "nhards": 0,
c "nhard_len_stats":
c    { "min": 0, "max": 0, "ave": 0.00,
c      "stddev": 0.00 },
c "nsofts": 348,
c "nsoft_len_stats":
c    { "min": 2, "max": 2, "ave": 2.00,
c      "stddev": 0.00 },
c "nsoft_wts": 10,
c "soft_wt_stats":
c    { "min": 1, "max": 10, "ave": 5.65,
c      "stddev": 3.00 }
c}
c------------------------------------------------------------
c File  p_hat300_1.clq
c
c Source: P. Soriano and M. Gendreau at  patrick@crt.umontreal.ca
c
c Reference: p-hat graphs are generated with the p-hat generator
c 	      which is a generalisation of the classical uniform
c 	      random graph generator.
c 	      Graphs generated with p-hat have wider node degree spread
c 	      and larger cliques than uniform graphs.
c
c NOTE: September 23, 1993 Corrected corrupted file at DIMACS.
c
c
c Generation parameters: 
c 	n =    300 a =  0.00  b =  0.50  Expected density =  0.25
c	Seed =       8713       Real density =  0.244
c
p wcnf 43 348 1967
9 1 5 0
9 -1 -5 0
4 1 28 0
4 -1 -28 0
8 1 29 0
8 -1 -29 0
8 1 34 0
8 -1 -34 0
10 2 6 0
10 -2 -6 0
2 2 33 0
2 -2 -33 0
4 2 40 0
4 -2 -40 0
8 3 10 0
8 -3 -10 0
3 3 26 0
3 -3 -26 0
6 3 29 0
6 -3 -29 0
5 3 35 0
5 -3 -35 0
7 3 36 0
7 -3 -36 0
4 3 41 0
4 -3 -41 0
6 4 9 0
6 -4 -9 0
10 4 12 0
10 -4 -12 0
10 4 15 0
10 -4 -15 0
7 4 25 0
7 -4 -25 0
8 4 26 0
8 -4 -26 0
2 4 39 0
2 -4 -39 0
7 5 7 0
7 -5 -7 0
1 5 9 0
1 -5 -9 0
3 5 18 0
3 -5 -18 0
2 5 19 0
2 -5 -19 0
9 5 36 0
9 -5 -36 0
2 5 39 0
2 -5 -39 0
5 6 20 0
5 -6 -20 0
2 6 22 0
2 -6 -22 0
2 6 24 0
2 -6 -24 0
10 6 26 0
10 -6 -26 0
3 6 27 0
3 -6 -27 0
6 6 29 0
6 -6 -29 0
9 6 31 0
9 -6 -31 0
7 6 34 0
7 -6 -34 0
3 6 40 0
3 -6 -40 0
7 6 42 0
7 -6 -42 0
6 7 9 0
6 -7 -9 0
5 7 10 0
5 -7 -10 0
10 7 12 0
10 -7 -12 0
3 7 13 0
3 -7 -13 0
8 7 25 0
8 -7 -25 0
6 7 30 0
6 -7 -30 0
8 7 33 0
8 -7 -33 0
5 7 38 0
5 -7 -38 0
9 7 43 0
9 -7 -43 0
3 8 19 0
3 -8 -19 0
4 8 28 0
4 -8 -28 0
9 8 32 0
9 -8 -32 0
10 8 39 0
10 -8 -39 0
1 8 40 0
1 -8 -40 0
10 9 11 0
10 -9 -11 0
6 9 12 0
6 -9 -12 0
1 9 13 0
1 -9 -13 0
2 9 15 0
2 -9 -15 0
7 9 18 0
7 -9 -18 0
9 9 24 0
9 -9 -24 0
4 9 26 0
4 -9 -26 0
1 9 28 0
1 -9 -28 0
1 9 37 0
1 -9 -37 0
5 9 38 0
5 -9 -38 0
1 9 39 0
1 -9 -39 0
3 9 41 0
3 -9 -41 0
10 10 26 0
10 -10 -26 0
10 10 33 0
10 -10 -33 0
9 10 35 0
9 -10 -35 0
3 10 40 0
3 -10 -40 0
6 10 41 0
6 -10 -41 0
4 11 14 0
4 -11 -14 0
8 11 16 0
8 -11 -16 0
6 11 27 0
6 -11 -27 0
7 11 32 0
7 -11 -32 0
6 11 36 0
6 -11 -36 0
1 11 39 0
1 -11 -39 0
5 11 40 0
5 -11 -40 0
10 11 41 0
10 -11 -41 0
10 12 19 0
10 -12 -19 0
8 12 28 0
8 -12 -28 0
3 12 29 0
3 -12 -29 0
8 12 31 0
8 -12 -31 0
7 12 32 0
7 -12 -32 0
4 12 35 0
4 -12 -35 0
7 12 38 0
7 -12 -38 0
2 13 14 0
2 -13 -14 0
5 13 26 0
5 -13 -26 0
9 13 33 0
9 -13 -33 0
9 13 34 0
9 -13 -34 0
4 13 37 0
4 -13 -37 0
3 13 39 0
3 -13 -39 0
9 13 42 0
9 -13 -42 0
4 14 15 0
4 -14 -15 0
7 14 34 0
7 -14 -34 0
10 14 36 0
10 -14 -36 0
6 14 38 0
6 -14 -38 0
7 14 40 0
7 -14 -40 0
9 15 24 0
9 -15 -24 0
5 15 29 0
5 -15 -29 0
10 15 30 0
10 -15 -30 0
4 15 32 0
4 -15 -32 0
9 15 33 0
9 -15 -33 0
7 15 38 0
7 -15 -38 0
10 15 41 0
10 -15 -41 0
5 16 18 0
5 -16 -18 0
3 16 31 0
3 -16 -31 0
10 16 38 0
10 -16 -38 0
10 16 41 0
10 -16 -41 0
2 17 37 0
2 -17 -37 0
9 18 19 0
9 -18 -19 0
7 18 35 0
7 -18 -35 0
5 19 24 0
5 -19 -24 0
7 19 41 0
7 -19 -41 0
3 20 24 0
3 -20 -24 0
8 20 38 0
8 -20 -38 0
4 20 39 0
4 -20 -39 0
5 21 26 0
5 -21 -26 0
3 21 31 0
3 -21 -31 0
2 21 32 0
2 -21 -32 0
3 21 38 0
3 -21 -38 0
6 21 40 0
6 -21 -40 0
5 21 42 0
5 -21 -42 0
2 22 26 0
2 -22 -26 0
10 22 30 0
10 -22 -30 0
2 22 35 0
2 -22 -35 0
2 22 36 0
2 -22 -36 0
5 23 28 0
5 -23 -28 0
8 24 25 0
8 -24 -25 0
10 24 34 0
10 -24 -34 0
10 24 37 0
10 -24 -37 0
7 24 38 0
7 -24 -38 0
4 25 26 0
4 -25 -26 0
8 25 31 0
8 -25 -31 0
4 25 32 0
4 -25 -32 0
3 25 34 0
3 -25 -34 0
3 25 41 0
3 -25 -41 0
6 26 27 0
6 -26 -27 0
3 26 29 0
3 -26 -29 0
2 26 30 0
2 -26 -30 0
8 26 35 0
8 -26 -35 0
2 26 38 0
2 -26 -38 0
8 26 39 0
8 -26 -39 0
2 26 40 0
2 -26 -40 0
8 27 35 0
8 -27 -35 0
1 27 36 0
1 -27 -36 0
10 27 39 0
10 -27 -39 0
1 28 32 0
1 -28 -32 0
6 28 40 0
6 -28 -40 0
2 28 41 0
2 -28 -41 0
3 28 43 0
3 -28 -43 0
8 29 30 0
8 -29 -30 0
8 29 33 0
8 -29 -33 0
7 29 35 0
7 -29 -35 0
10 29 36 0
10 -29 -36 0
7 29 43 0
7 -29 -43 0
8 30 31 0
8 -30 -31 0
1 30 37 0
1 -30 -37 0
2 30 40 0
2 -30 -40 0
6 31 32 0
6 -31 -32 0
1 31 34 0
1 -31 -34 0
1 32 34 0
1 -32 -34 0
3 32 38 0
3 -32 -38 0
5 32 40 0
5 -32 -40 0
9 32 41 0
9 -32 -41 0
6 32 42 0
6 -32 -42 0
8 32 43 0
8 -32 -43 0
1 33 34 0
1 -33 -34 0
2 33 36 0
2 -33 -36 0
10 33 40 0
10 -33 -40 0
3 34 38 0
3 -34 -38 0
9 34 41 0
9 -34 -41 0
2 35 42 0
2 -35 -42 0
10 36 37 0
10 -36 -37 0
1 36 40 0
1 -36 -40 0
9 37 40 0
9 -37 -40 0
1 38 41 0
1 -38 -41 0
1 39 41 0
1 -39 -41 0
10 40 41 0
10 -40 -41 0
